# proto-file: third_party/google_research/google_research/smu/dataset.proto
# proto-message: MultipleMolecules
molecules {
mol_id: 79308002
ini_geo {
  atompos {
    x: 1.389894
    y: 2.266916
    z: -0.653656
  }
  atompos {
    x: -2.629743
    y: -0.067463
    z: 0.692207
  }
  atompos {
    x: 1.438648
    y: -2.470439
    z: -0.024566
  }
  atompos {
    x: -1.36665
    y: -2.251987
    z: -0.690506
  }
  atompos {
    x: 2.662435
    y: 0.054424
    z: 0.674821
  }
  atompos {
    x: -1.410681
    y: 2.471384
    z: 0.036094
  }
  atompos {
    x: 2.352709
    y: 4.038912
    z: -0.182737
  }
  atompos {
    x: 1.575087
    y: 2.023141
    z: -2.704765
  }
  atompos {
    x: -4.650427
    y: -0.004157
    z: 0.243775
  }
  atompos {
    x: -2.489525
    y: -0.387583
    z: 2.736323
  }
  atompos {
    x: 2.437936
    y: -3.31269
    z: -1.633479
  }
  atompos {
    x: 1.684124
    y: -3.786444
    z: 1.557323
  }
  atompos {
    x: -1.566205
    y: -1.966071
    z: -2.734812
  }
  atompos {
    x: -2.326253
    y: -4.033432
    z: -0.249444
  }
  atompos {
    x: 4.679907
    y: 0.000756
    z: 0.211082
  }
  atompos {
    x: 2.536579
    y: 0.332403
    z: 2.72593
  }
  atompos {
    x: -2.421117
    y: 3.346516
    z: -1.547875
  }
  atompos {
    x: -1.645007
    y: 3.754508
    z: 1.646896
  }
  energy {
    val: -235.626685
  }
  gnorm {
    val: 0.010946
  }
}
opt_geo {
  atompos {
    x: 1.378476
    y: 2.227332
    z: -0.70946
  }
  atompos {
    x: -2.589365
    y: -0.078428
    z: 0.747194
  }
  atompos {
    x: 1.445666
    y: -2.482537
    z: -0.024551
  }
  atompos {
    x: -1.355664
    y: -2.211225
    z: -0.745637
  }
  atompos {
    x: 2.622514
    y: 0.064263
    z: 0.730309
  }
  atompos {
    x: -1.417756
    y: 2.483458
    z: 0.036573
  }
  atompos {
    x: 2.375783
    y: 4.009104
    z: -0.378861
  }
  atompos {
    x: 1.538892
    y: 1.854138
    z: -2.743027
  }
  atompos {
    x: -4.634386
    y: -0.043118
    z: 0.438329
  }
  atompos {
    x: -2.325684
    y: -0.442147
    z: 2.771667
  }
  atompos {
    x: 2.491464
    y: -3.297794
    z: -1.615011
  }
  atompos {
    x: 1.643437
    y: -3.824686
    z: 1.539923
  }
  atompos {
    x: -1.530235
    y: -1.79607
    z: -2.769884
  }
  atompos {
    x: -2.350789
    y: -3.999504
    z: -0.444978
  }
  atompos {
    x: 4.665287
    y: 0.035431
    z: 0.406261
  }
  atompos {
    x: 2.373267
    y: 0.386207
    z: 2.763666
  }
  atompos {
    x: -2.474602
    y: 3.331055
    z: -1.529494
  }
  atompos {
    x: -1.604594
    y: 3.793214
    z: 1.629593
  }
  energy {
    val: -235.627738
  }
  gnorm {
    val: 6.4e-05
  }
  enuc {
    val: 256.802002
  }
  brot {
    val: [2566.826, 4192.034, 4431.383]
  }
}
prop {
  calc {
    status: 1
    fate: FATE_SUCCESS_NEUTRAL_WARNING_LOW
    which_database: STANDARD
  }
  vib_intens {
    val: [0.0, 0.0, 0.0, 0.0, 0.0, 0.0, 0.0, 0.0, 0.0, 0.4, 0.0, 0.7, 2.0, 2.8, 0.0, 1.8, 2.6, 0.0, 0.0, 2.0, 0.0, 0.6, 0.0, 0.0, 0.2, 1.9, 0.3, 0.0, 0.0, 1.9, 0.5, 0.1, 0.0, 0.1, 0.5, 0.0, 0.1, 0.6, 6.1, 7.0, 16.5, 0.0, 24.9, 14.3, 0.0, 64.4, 0.1, 72.2, 16.4, 41.1, 69.0, 0.0, 84.1, 122.0]
  }
  spe_std_pbe0d3_6311gd {
    val: -235.627738
  }
  spe_check_pbe0_6311gd_tmol {
    val: -235.620086
  }
  spe_check_pbe0_6311gd_mrcc {
    val: -235.620085
  }
  spe_check_pbe0_6311gd_orca {
    val: -235.620186
  }
  spe_stdcat_pbe0_6311gd_tmol {
    val: -235.243329
  }
  spe_stdcat_pbe0_6311gd_mrcc {
    val: -235.24325
  }
  spe_stdcat_pbe0_6311gd_orca {
    val: -235.244233
  }
  spe_std_pbe0_augpc1 {
    val: -235.542839
  }
  spe_std_hf_631gd {
    val: -234.195332
  }
  spe_std_b3lyp_631ppgdp {
    val: -235.887604
  }
  spe_std_b3lyp_augpcs1 {
    val: -235.818428
  }
  spe_std_pbe0_631ppgdp {
    val: -235.595085
  }
  spe_std_pbe0_augpcs1 {
    val: -235.524599
  }
  spe_std_hf_tzvp {
    val: -234.26879
  }
  spe_std_mp2_tzvp {
    val: -235.169587
  }
  spe_std_cc2_tzvp {
    val: -235.177744
  }
  spe_std_hf_3 {
    val: -234.274727
  }
  spe_std_mp2_3 {
    val: -235.319308
  }
  spe_std_hf_4 {
    val: -234.2892
  }
  spe_std_mp2_4 {
    val: -235.397146
  }
  spe_std_hf_34 {
    val: -234.292727
  }
  spe_std_mp2_34 {
    val: -235.453219
  }
  spe_std_hf_cvtz {
    val: -234.275935
  }
  spe_std_mp2full_cvtz {
    val: -235.611902
  }
  spe_std_hf_2sp {
    val: -234.092959
  }
  spe_std_mp2_2sp {
    val: -234.629611
  }
  spe_std_ccsd_2sp {
    val: -234.700996
  }
  spe_std_ccsd_t_2sp {
    val: -234.715744
  }
  spe_std_hf_2sd {
    val: -234.17661
  }
  spe_std_mp2_2sd {
    val: -234.954052
  }
  spe_std_ccsd_2sd {
    val: -235.026766
  }
  spe_std_ccsd_t_2sd {
    val: -235.051605
  }
  spe_std_hf_3psd {
    val: -234.207518
  }
  spe_std_mp2_3psd {
    val: -235.073932
  }
  spe_std_ccsd_3psd {
    val: -235.140307
  }
  spe_comp_b5 {
    val: -235.835818
  }
  spe_comp_b6 {
    val: -235.832067
  }
  vib_zpe {
    val: 107.49
  }
  orb_ehomo_pbe0_6311gd {
    val: -0.30428
  }
  orb_elumo_pbe0_6311gd {
    val: 0.04826
  }
  orb_ehomo_pbe0_augpc1 {
    val: -0.30378
  }
  orb_elumo_pbe0_augpc1 {
    val: -0.00332
  }
  orb_ehomo_pbe0_631ppgdp {
    val: -0.30255
  }
  orb_elumo_pbe0_631ppgdp {
    val: -0.00013
  }
  orb_ehomo_pbe0_augpcs1 {
    val: -0.30392
  }
  orb_elumo_pbe0_augpcs1 {
    val: -0.00329
  }
  orb_ehomo_b3lyp_631ppgdp {
    val: -0.29659
  }
  orb_elumo_b3lyp_631ppgdp {
    val: -0.00888
  }
  orb_ehomo_b3lyp_augpcs1 {
    val: -0.29823
  }
  orb_elumo_b3lyp_augpcs1 {
    val: -0.01093
  }
  orb_ehomo_hf_631gd {
    val: -0.42436
  }
  orb_elumo_hf_631gd {
    val: 0.2181
  }
  orb_ehomo_hf_tzvp {
    val: -0.42531
  }
  orb_elumo_hf_tzvp {
    val: 0.13723
  }
  orb_ehomo_hf_3 {
    val: -0.4249
  }
  orb_elumo_hf_3 {
    val: 0.1375
  }
  orb_ehomo_hf_4 {
    val: -0.42501
  }
  orb_elumo_hf_4 {
    val: 0.11225
  }
  orb_ehomo_hf_cvtz {
    val: -0.42493
  }
  orb_elumo_hf_cvtz {
    val: 0.13733
  }
  exc_ene_cc2_tzvp {
    val: [0.31994, 0.32205, 0.32444, 0.34598, 0.35027]
  }
  exc_os_cc2_tzvp {
    val: [0.0, 0.00384, 0.00461, 0.04629, 0.02596]
  }
  nmr_pbe0_631ppgdp {
    val: [176.1024, 176.0768, 173.8048, 176.096, 176.0832, 173.8048, 30.2032, 30.1808, 30.2064, 30.1856, 30.0752, 30.0752, 30.1824, 30.2048, 30.2064, 30.1856, 30.0752, 30.0736]
    prec: [0.0064, 0.0064, 0.0064, 0.0064, 0.0064, 0.0064, 0.0016, 0.0016, 0.0016, 0.0016, 0.0016, 0.0016, 0.0016, 0.0016, 0.0016, 0.0016, 0.0016, 0.0016]
  }
  nmr_pbe0_augpcs1 {
    val: [165.984, 165.9648, 163.6288, 165.9904, 165.9648, 163.6224, 30.0176, 30.0256, 30.016, 30.0208, 29.8816, 29.8784, 30.0256, 30.0176, 30.016, 30.0208, 29.8816, 29.88]
    prec: [0.0064, 0.0064, 0.0064, 0.0064, 0.0064, 0.0064, 0.0016, 0.0016, 0.0016, 0.0016, 0.0016, 0.0016, 0.0016, 0.0016, 0.0016, 0.0016, 0.0016, 0.0016]
  }
  nmr_b3lyp_631ppgdp {
    val: [170.848, 170.8224, 168.4992, 170.8416, 170.8288, 168.5056, 30.28, 30.2352, 30.2816, 30.24, 30.1456, 30.144, 30.2352, 30.28, 30.2816, 30.24, 30.1456, 30.144]
    prec: [0.0064, 0.0064, 0.0064, 0.0064, 0.0064, 0.0064, 0.0016, 0.0016, 0.0016, 0.0016, 0.0016, 0.0016, 0.0016, 0.0016, 0.0016, 0.0016, 0.0016, 0.0016]
  }
  nmr_b3lyp_augpcs1 {
    val: [159.4432, 159.4112, 157.0432, 159.4432, 159.4112, 157.0368, 30.1088, 30.112, 30.1072, 30.1088, 29.9776, 29.976, 30.1136, 30.1088, 30.1072, 30.1088, 29.9776, 29.976]
    prec: [0.0064, 0.0064, 0.0064, 0.0064, 0.0064, 0.0064, 0.0016, 0.0016, 0.0016, 0.0016, 0.0016, 0.0016, 0.0016, 0.0016, 0.0016, 0.0016, 0.0016, 0.0016]
  }
  chg_mul_pbe0_augpc1 {
    val: [-0.4454, -0.4453, -0.4074, -0.4456, -0.4458, -0.4078, 0.103, 0.3239, 0.1035, 0.3239, 0.2218, 0.2227, 0.3239, 0.103, 0.1034, 0.3239, 0.2217, 0.2227]
    prec: [0.0001, 0.0001, 0.0001, 0.0001, 0.0001, 0.0001, 0.0001, 0.0001, 0.0001, 0.0001, 0.0001, 0.0001, 0.0001, 0.0001, 0.0001, 0.0001, 0.0001, 0.0001]
  }
  chg_mul_hf_631gd {
    val: [-0.3287, -0.3287, -0.3118, -0.3287, -0.3287, -0.3118, 0.1656, 0.1582, 0.1656, 0.1582, 0.1608, 0.1608, 0.1582, 0.1656, 0.1656, 0.1582, 0.1608, 0.1608]
    prec: [0.0001, 0.0001, 0.0001, 0.0001, 0.0001, 0.0001, 0.0001, 0.0001, 0.0001, 0.0001, 0.0001, 0.0001, 0.0001, 0.0001, 0.0001, 0.0001, 0.0001, 0.0001]
  }
  chg_loe_pbe0_augpc1 {
    val: [-0.1775, -0.1774, -0.1661, -0.1775, -0.1774, -0.1662, 0.087, 0.087, 0.087, 0.087, 0.0865, 0.0866, 0.087, 0.0869, 0.087, 0.087, 0.0866, 0.0866]
    prec: [0.0001, 0.0001, 0.0001, 0.0001, 0.0001, 0.0001, 0.0001, 0.0001, 0.0001, 0.0001, 0.0001, 0.0001, 0.0001, 0.0001, 0.0001, 0.0001, 0.0001, 0.0001]
  }
  chg_loe_hf_631gd {
    val: [-0.2343, -0.2343, -0.2323, -0.2343, -0.2343, -0.2323, 0.1194, 0.114, 0.1194, 0.114, 0.1171, 0.117, 0.114, 0.1194, 0.1194, 0.114, 0.1171, 0.117]
    prec: [0.0001, 0.0001, 0.0001, 0.0001, 0.0001, 0.0001, 0.0001, 0.0001, 0.0001, 0.0001, 0.0001, 0.0001, 0.0001, 0.0001, 0.0001, 0.0001, 0.0001, 0.0001]
  }
  chg_nat_pbe0_augpc1 {
    val: [-0.4442, -0.4441, -0.4362, -0.4441, -0.4441, -0.4363, 0.2277, 0.2148, 0.2276, 0.2148, 0.2198, 0.2198, 0.2148, 0.2277, 0.2276, 0.2148, 0.2198, 0.2198]
    prec: [0.0001, 0.0001, 0.0001, 0.0001, 0.0001, 0.0001, 0.0001, 0.0001, 0.0001, 0.0001, 0.0001, 0.0001, 0.0001, 0.0001, 0.0001, 0.0001, 0.0001, 0.0001]
  }
  chg_nat_hf_631gd {
    val: [-0.4355, -0.4355, -0.4303, -0.4355, -0.4355, -0.4303, 0.2237, 0.2101, 0.2237, 0.2101, 0.2168, 0.2168, 0.2101, 0.2237, 0.2237, 0.2101, 0.2168, 0.2168]
    prec: [0.0001, 0.0001, 0.0001, 0.0001, 0.0001, 0.0001, 0.0001, 0.0001, 0.0001, 0.0001, 0.0001, 0.0001, 0.0001, 0.0001, 0.0001, 0.0001, 0.0001, 0.0001]
  }
  chg_esp_pbe0_augpc1 {
    val: [-0.008, -0.0076, -0.0553, -0.0078, -0.0058, -0.0532, 0.0015, 0.0168, 0.0013, 0.0172, 0.0165, 0.0164, 0.0171, 0.0016, 0.0011, 0.0164, 0.0159, 0.0158]
    prec: [0.0001, 0.0001, 0.0001, 0.0001, 0.0001, 0.0001, 0.0001, 0.0001, 0.0001, 0.0001, 0.0001, 0.0001, 0.0001, 0.0001, 0.0001, 0.0001, 0.0001, 0.0001]
  }
  chg_esp_hf_631gd {
    val: [0.0028, 0.0036, -0.0487, 0.0025, 0.0048, -0.047, -0.0039, 0.012, -0.0041, 0.0122, 0.0127, 0.0126, 0.0123, -0.0037, -0.0042, 0.0116, 0.0122, 0.0122]
    prec: [0.0001, 0.0001, 0.0001, 0.0001, 0.0001, 0.0001, 0.0001, 0.0001, 0.0001, 0.0001, 0.0001, 0.0001, 0.0001, 0.0001, 0.0001, 0.0001, 0.0001, 0.0001]
  }
  elec_pol_pbe0_augpc1 {
    xx: 73.01685
    yy: 73.43545
    zz: 63.69406
    xy: -0.36189
    xz: -0.03639
    yz: 0.10174
  }
  elec_dip_pbe0_augpc1 {
    x: -4e-05
    y: -0.0
    z: -0.0
  }
  elec_dip_hf_631gd {
    y: -0.0
    z: -3e-05
  }
  elec_qua_pbe0_augpc1 {
    xx: -30.03893
    yy: -30.15768
    zz: -29.697
    xy: 0.10307
    xz: 0.00224
    yz: -0.00524
  }
  elec_qua_hf_631gd {
    xx: -30.18413
    yy: -30.29203
    zz: -29.78086
    xy: 0.09334
    xz: 0.00237
    yz: -0.00559
  }
  elec_oct_pbe0_augpc1 {
    xxx: -1.27645
    yyy: -0.08998
    zzz: -0.50714
    xxy: 0.01033
    xxz: -1.69132
    xyy: -0.43452
    yyz: 1.33952
    xzz: -0.38667
    yzz: 0.01073
    xyz: 0.87775
  }
  elec_oct_hf_631gd {
    xxx: -1.28196
    yyy: -0.09006
    zzz: -0.50999
    xxy: 0.00964
    xxz: -1.67944
    xyy: -0.43616
    yyz: 1.33089
    xzz: -0.3877
    yzz: 0.01055
    xyz: 0.87221
  }
  wf_diag_d1_2sp {
    val: 0.0134
  }
  wf_diag_t1_2sp {
    val: 0.0058
  }
  wf_diag_t1_2sd {
    val: 0.0089
  }
  wf_diag_t1_3psd {
    val: 0.0107
  }
  spe_comp_eccsd {
    val: -235.495035
  }
  at2_gen_t1_exc {
    val: 0.0007
  }
  at2_gen_bsr_left {
    val: " molecule +  6 CH4"
  }
  at2_gen_bsr_right {
    val: " 6 H3C-CH3"
  }
  at2_std_b5_ereac {
    val: 5.33
  }
  at2_um_b5_ereac {
    val: 5.06
  }
  at2_um_b5_ereac_unc {
    val: 0.58
  }
  at2_std_b6_ereac {
    val: 5.33
  }
  at2_um_b6_ereac {
    val: 5.01
  }
  at2_um_b6_ereac_unc {
    val: 1.22
  }
  at2_std_eccsd_ereac {
    val: 5.01
  }
  at2_um_eccsd_ereac {
    val: 5.76
  }
  at2_um_eccsd_ereac_unc {
    val: 3.1
  }
  at2_std_b5_eae {
    val: 1759.03
  }
  at2_um_b5_eae {
    val: 1759.19
  }
  at2_um_b5_eae_unc {
    val: 0.94
  }
  at2_std_b6_eae {
    val: 1759.02
  }
  at2_um_b6_eae {
    val: 1759.15
  }
  at2_um_b6_eae_unc {
    val: 1.43
  }
  at2_std_eccsd_eae {
    val: 1758.71
  }
  at2_um_eccsd_eae {
    val: 1759.9
  }
  at2_um_eccsd_eae_unc {
    val: 3.19
  }
  at2_std_b5_ea0 {
    val: 1653.79
  }
  at2_um_b5_ea0 {
    val: 1653.63
  }
  at2_um_b5_ea0_unc {
    val: 1.28
  }
  at2_std_b6_ea0 {
    val: 1653.79
  }
  at2_um_b6_ea0 {
    val: 1653.59
  }
  at2_um_b6_ea0_unc {
    val: 1.67
  }
  at2_std_eccsd_ea0 {
    val: 1653.47
  }
  at2_um_eccsd_ea0 {
    val: 1654.34
  }
  at2_um_eccsd_ea0_unc {
    val: 3.31
  }
  at2_std_b5_hf0 {
    val: -14.02
  }
  at2_um_b5_hf0 {
    val: -13.86
  }
  at2_um_b5_hf0_unc {
    val: 1.28
  }
  at2_std_b6_hf0 {
    val: -14.02
  }
  at2_um_b6_hf0 {
    val: -13.82
  }
  at2_um_b6_hf0_unc {
    val: 1.67
  }
  at2_std_eccsd_hf0 {
    val: -13.7
  }
  at2_um_eccsd_hf0 {
    val: -14.57
  }
  at2_um_eccsd_hf0_unc {
    val: 3.31
  }
  at2_std_b5_hf298 {
    val: -23.3
  }
  at2_um_b5_hf298 {
    val: -23.14
  }
  at2_um_b5_hf298_unc {
    val: 1.3
  }
  at2_std_b6_hf298 {
    val: -23.29
  }
  at2_um_b6_hf298 {
    val: -23.09
  }
  at2_um_b6_hf298_unc {
    val: 1.68
  }
  at2_std_eccsd_hf298 {
    val: -22.98
  }
  at2_um_eccsd_hf298 {
    val: -23.84
  }
  at2_um_eccsd_hf298_unc {
    val: 3.31
  }
  at2_std_zpe {
    val: 105.24
  }
  at2_um_zpe {
    val: 105.56
  }
  at2_um_zpe_unc {
    val: 0.86
  }
  vib_freq {
    val: [0.0, 0.0, 0.0, 0.0, 0.0, 0.0, 122.9, 241.9, 285.3, 431.2, 468.8, 554.9, 767.3, 787.1, 827.0, 888.0, 894.8, 910.7, 950.3, 1026.4, 1054.1, 1077.0, 1127.7, 1135.2, 1156.4, 1182.7, 1270.2, 1282.0, 1312.1, 1320.4, 1340.1, 1367.9, 1383.6, 1384.7, 1391.1, 1396.8, 1494.3, 1494.6, 1504.9, 1510.3, 1518.4, 1532.2, 3030.3, 3038.1, 3039.3, 3045.5, 3050.4, 3051.2, 3075.4, 3078.8, 3089.9, 3095.0, 3099.4, 3106.1]
  }
  vib_mode {
    disp {
      x: -0.0494
      y: 0.2444
      z: 0.0342
    }
    disp {
      x: 0.0037
      y: 0.0837
      z: -0.0754
    }
    disp {
      x: 0.103
      y: 0.2368
      z: -0.0333
    }
    disp {
      x: 0.1072
      y: 0.1489
      z: -0.0829
    }
    disp {
      x: -0.001
      y: 0.2671
      z: 0.0264
    }
    disp {
      x: -0.0727
      y: 0.1353
      z: -0.0156
    }
    disp {
      x: -0.1184
      y: 0.2746
      z: 0.0793
    }
    disp {
      x: 0.0026
      y: 0.2798
      z: 0.0318
    }
    disp {
      x: 0.0084
      y: 0.0164
      z: -0.114
    }
    disp {
      x: -0.0222
      y: 0.0634
      z: -0.0756
    }
    disp {
      x: 0.162
      y: 0.2968
      z: -0.0252
    }
    disp {
      x: 0.1202
      y: 0.2209
      z: -0.0491
    }
    disp {
      x: 0.1313
      y: 0.1723
      z: -0.0802
    }
    disp {
      x: 0.1643
      y: 0.1095
      z: -0.1281
    }
    disp {
      x: 0.0062
      y: 0.3436
      z: 0.065
    }
    disp {
      x: -0.0512
      y: 0.2287
      z: 0.0263
    }
    disp {
      x: -0.0725
      y: 0.121
      z: -0.0234
    }
    disp {
      x: -0.1492
      y: 0.1055
    }
  }
  vib_mode {
    disp {
      x: 0.1242
      y: -0.0291
      z: 0.0821
    }
    disp {
      x: 0.0509
      y: -0.0926
      z: -0.2179
    }
    disp {
      x: 0.0898
      y: -0.0589
      z: -0.1192
    }
    disp {
      x: 0.1262
      y: -0.0276
      z: -0.2485
    }
    disp {
      x: 0.0518
      y: -0.0917
      z: 0.0507
    }
    disp {
      x: 0.0866
      y: -0.0616
      z: -0.0475
    }
    disp {
      x: 0.1075
      y: -0.0435
      z: 0.2098
    }
    disp {
      x: 0.2266
      y: 0.0593
      z: 0.074
    }
    disp {
      x: 0.0665
      y: -0.0792
      z: -0.3194
    }
    disp {
      x: -0.051
      y: -0.1806
      z: -0.2205
    }
    disp {
      x: 0.17
      y: 0.0103
      z: -0.102
    }
    disp {
      x: 0.0111
      y: -0.1269
      z: -0.1676
    }
    disp {
      x: 0.2281
      y: 0.0604
      z: -0.2393
    }
    disp {
      x: 0.1111
      y: -0.0407
      z: -0.3764
    }
    disp {
      x: 0.0681
      y: -0.0775
      z: 0.1524
    }
    disp {
      x: -0.0507
      y: -0.1801
      z: 0.0522
    }
    disp {
      x: 0.1654
      y: 0.0064
      z: -0.0639
    }
    disp {
      x: 0.0063
      y: -0.1309
    }
  }
  vib_mode {
    disp {
      x: 0.1705
      y: -0.0068
      z: 0.1511
    }
    disp {
      x: 0.016
      y: 0.1636
    }
    disp {
      x: -0.0427
      y: -0.0016
      z: 0.2076
    }
    disp {
      y: 0.0988
      z: 0.0794
    }
    disp {
      x: 0.0223
      y: -0.0387
      z: 0.2313
    }
    disp {
      x: 0.1471
      y: 0.1101
      z: 0.0232
    }
    disp {
      x: 0.2248
      y: -0.0417
      z: 0.1754
    }
    disp {
      x: 0.2469
      y: -0.0361
      z: 0.1625
    }
    disp {
      x: 0.0312
      y: 0.2394
      z: -0.0918
    }
    disp {
      x: -0.0885
      y: 0.1764
      z: 0.0159
    }
    disp {
      x: -0.0032
      y: -0.0603
      z: 0.2636
    }
    disp {
      x: -0.1647
      y: 0.0085
      z: 0.2317
    }
    disp {
      x: 0.1066
      y: 0.0826
      z: 0.0669
    }
    disp {
      x: -0.0827
      y: 0.1408
      z: 0.0552
    }
    disp {
      x: 0.0357
      y: -0.1216
      z: 0.3229
    }
    disp {
      x: -0.0561
      y: -0.0059
      z: 0.2165
    }
    disp {
      x: 0.25
      y: 0.1333
      z: -0.0336
    }
    disp {
      x: 0.1267
      y: 0.1354
    }
  }
  vib_mode {
    disp {
      x: 0.1551
      y: 0.006
      z: -0.1318
    }
    disp {
      x: 0.2054
      y: 0.069
      z: 0.1051
    }
    disp {
      x: 0.1398
      y: 0.0149
      z: -0.0691
    }
    disp {
      x: 0.1055
      y: 0.0348
      z: 0.0715
    }
    disp {
      x: 0.2061
      y: 0.0128
      z: -0.1655
    }
    disp {
      x: 0.1963
      y: 0.0465
      z: 0.0088
    }
    disp {
      x: 0.1913
      y: -0.0001
      z: -0.2082
    }
    disp {
      x: 0.0463
      y: -0.0243
      z: -0.1348
    }
    disp {
      x: 0.1899
      y: 0.0867
      z: 0.21
    }
    disp {
      x: 0.3058
      y: 0.0946
      z: 0.0966
    }
    disp {
      x: 0.0491
      y: -0.0187
      z: -0.1116
    }
    disp {
      x: 0.206
      y: 0.0347
      z: -0.0605
    }
    disp {
      x: 0.0057
      y: 0.0083
      z: 0.0746
    }
    disp {
      x: 0.1018
      y: 0.0497
      z: 0.1479
    }
    disp {
      x: 0.1891
      y: -0.0137
      z: -0.2704
    }
    disp {
      x: 0.3143
      y: 0.044
      z: -0.1572
    }
    disp {
      x: 0.1247
      y: 0.0358
      z: 0.0513
    }
    disp {
      x: 0.2925
      y: 0.0708
    }
  }
  vib_mode {
    disp {
      x: -0.0254
      y: -0.0277
      z: 0.0145
    }
    disp {
      x: 0.0534
      y: -0.1558
      z: 0.0265
    }
    disp {
      x: 0.1792
      y: 0.0014
      z: 0.1947
    }
    disp {
      x: 0.1804
      y: -0.1555
      z: 0.131
    }
    disp {
      x: 0.0471
      y: 0.0845
      z: 0.1204
    }
    disp {
      x: -0.0515
      y: -0.1286
      z: -0.0485
    }
    disp {
      x: -0.1141
      y: 0.0309
      z: -0.0342
    }
    disp {
      x: 0.0306
      y: -0.0976
      z: 0.0318
    }
    disp {
      x: 0.0577
      y: -0.2621
      z: -0.0138
    }
    disp {
      x: 0.0316
      y: -0.0667
      z: 0.0454
    }
    disp {
      x: 0.2472
      y: -0.0107
      z: 0.2456
    }
    disp {
      x: 0.2115
      y: 0.07
      z: 0.2495
    }
    disp {
      x: 0.1998
      y: -0.2405
      z: 0.112
    }
    disp {
      x: 0.2574
      y: -0.1901
      z: 0.18
    }
    disp {
      x: 0.0546
      y: 0.1666
      z: 0.1604
    }
    disp {
      x: -0.0065
      y: 0.1502
      z: 0.1034
    }
    disp {
      x: -0.0608
      y: -0.237
      z: -0.1008
    }
    disp {
      x: -0.1424
      y: -0.0768
      z: -0.1018
    }
  }
  vib_mode {
    disp {
      x: 0.0279
      y: -0.0449
      z: -0.2202
    }
    disp {
      x: -0.0354
      y: 0.0915
      z: -0.1765
    }
    disp {
      x: -0.0428
      y: -0.0026
      z: 0.0782
    }
    disp {
      x: -0.0212
      y: -0.0164
      z: -0.0106
    }
    disp {
      x: -0.0334
      y: 0.0317
      z: -0.0521
    }
    disp {
      x: 0.0116
      y: 0.0336
      z: -0.3079
    }
    disp {
      x: 0.0395
      y: -0.0354
      z: -0.3068
    }
    disp {
      x: 0.0757
      y: -0.1748
      z: -0.1926
    }
    disp {
      x: -0.0271
      y: 0.0951
      z: -0.2311
    }
    disp {
      x: -0.0914
      y: 0.2161
      z: -0.1469
    }
    disp {
      x: -0.0112
      y: -0.1145
      z: 0.1563
    }
    disp {
      x: -0.098
      y: 0.0937
      z: 0.1678
    }
    disp {
      x: 0.0353
      y: -0.1419
      z: -0.0412
    }
    disp {
      x: -0.0491
      y: 0.0138
      z: 0.0765
    }
    disp {
      x: -0.0254
      y: -0.0117
      z: 0.002
    }
    disp {
      x: -0.0818
      y: 0.1626
      z: -0.0787
    }
    disp {
      x: 0.0613
      y: -0.0531
      z: -0.3883
    }
    disp {
      x: -0.0144
      y: 0.136
      z: -0.3952
    }
  }
  vib_mode {
    disp {
      x: 0.0425
      y: 0.0243
      z: 0.0683
    }
    disp {
      x: 0.0422
      y: 0.0235
      z: 0.0674
    }
    disp {
      x: 0.0221
      y: 0.0145
      z: -0.1302
    }
    disp {
      x: -0.042
      y: -0.0256
      z: 0.0678
    }
    disp {
      x: -0.0416
      y: -0.0249
      z: 0.0669
    }
    disp {
      x: -0.0232
      y: -0.0119
      z: -0.1305
    }
    disp {
      x: 0.0147
      y: 0.0156
      z: 0.1973
    }
    disp {
      x: 0.1926
      y: 0.0885
      z: 0.068
    }
    disp {
      x: 0.0223
      y: 0.0015
      z: 0.1941
    }
    disp {
      x: 0.1699
      y: 0.1213
      z: 0.0679
    }
    disp {
      x: -0.0358
      y: 0.248
      z: -0.2887
    }
    disp {
      x: 0.1944
      y: -0.1499
      z: -0.2936
    }
    disp {
      x: -0.1919
      y: -0.0891
      z: 0.0674
    }
    disp {
      x: -0.0134
      y: -0.0195
      z: 0.1963
    }
    disp {
      x: -0.0209
      y: -0.0056
      z: 0.1934
    }
    disp {
      x: -0.1688
      y: -0.1228
      z: 0.0664
    }
    disp {
      x: 0.0338
      y: -0.2431
      z: -0.2948
    }
    disp {
      x: -0.1975
      y: 0.1565
      z: -0.2899
    }
  }
  vib_mode {
    disp {
      x: -0.003
      y: -0.0501
      z: -0.0654
    }
    disp {
      x: -0.0449
      y: 0.0236
      z: -0.0639
    }
    disp {
      x: 0.0545
      y: 0.0324
      z: -0.0689
    }
    disp {
      x: -0.0025
      y: -0.051
      z: 0.0639
    }
    disp {
      x: -0.0452
      y: 0.0223
      z: 0.0656
    }
    disp {
      x: 0.055
      y: 0.0309
      z: 0.0687
    }
    disp {
      x: 0.0342
      y: -0.036
      z: -0.2547
    }
    disp {
      x: -0.107
      y: -0.2277
      z: -0.0426
    }
    disp {
      x: -0.0162
      y: 0.0522
      z: -0.2513
    }
    disp {
      x: -0.248
      y: 0.0222
      z: -0.0393
    }
    disp {
      x: 0.0227
      y: 0.2553
      z: -0.2053
    }
    disp {
      x: 0.2293
      y: -0.105
      z: -0.2101
    }
    disp {
      x: -0.1068
      y: -0.2265
      z: 0.0385
    }
    disp {
      x: 0.0359
      y: -0.0409
      z: 0.252
    }
    disp {
      x: -0.0149
      y: 0.0473
      z: 0.2555
    }
    disp {
      x: -0.2507
      y: 0.0214
      z: 0.0421
    }
    disp {
      x: 0.0237
      y: 0.2499
      z: 0.2097
    }
    disp {
      x: 0.231
      y: -0.1087
      z: 0.2054
    }
  }
  vib_mode {
    disp {
      x: -0.0279
      y: -0.085
      z: -0.1025
    }
    disp {
      x: 0.0886
      y: -0.02
      z: 0.1027
    }
    disp {
      x: -0.0091
      y: 0.0159
      z: -0.0002
    }
    disp {
      x: 0.0272
      y: 0.0876
      z: -0.1015
    }
    disp {
      x: -0.0874
      y: 0.0177
      z: 0.1032
    }
    disp {
      x: 0.0086
      y: -0.0162
      z: -0.0012
    }
    disp {
      x: 0.0017
      y: -0.062
      z: -0.3245
    }
    disp {
      x: -0.0968
      y: -0.3099
      z: -0.0662
    }
    disp {
      x: 0.0558
      y: -0.0391
      z: 0.3261
    }
    disp {
      x: 0.3179
      y: -0.0715
      z: 0.063
    }
    disp {
      x: 0.073
      y: 0.0732
      z: 0.0239
    }
    disp {
      x: -0.0987
      y: -0.0281
      z: -0.0261
    }
    disp {
      x: 0.0972
      y: 0.3129
      z: -0.0609
    }
    disp {
      x: -0.0043
      y: 0.0691
      z: -0.3252
    }
    disp {
      x: -0.0534
      y: 0.032
      z: 0.3249
    }
    disp {
      x: -0.3152
      y: 0.0698
      z: 0.0664
    }
    disp {
      x: -0.073
      y: -0.0759
      z: 0.021
    }
    disp {
      x: 0.0965
      y: 0.0296
      z: -0.028
    }
  }
  vib_mode {
    disp {
      x: 0.0422
      y: 0.1506
      z: -0.0347
    }
    disp {
      x: 0.1518
      y: -0.0388
      z: -0.0358
    }
    disp {
      x: -0.0686
      y: -0.0392
      z: 0.0225
    }
    disp {
      x: -0.0424
      y: -0.1499
      z: -0.0375
    }
    disp {
      x: -0.152
      y: 0.0395
      z: -0.034
    }
    disp {
      x: 0.0687
      y: 0.0387
      z: 0.0227
    }
    disp {
      x: 0.0742
      y: 0.0927
      z: 0.1862
    }
    disp {
      x: 0.0973
      y: 0.3223
      z: -0.0602
    }
    disp {
      x: 0.1197
      y: 0.0141
      z: 0.1882
    }
    disp {
      x: 0.3285
      y: -0.0773
      z: -0.0642
    }
    disp {
      x: 0.0483
      y: -0.1588
      z: 0.1627
    }
    disp {
      x: -0.1133
      y: 0.1187
      z: 0.1657
    }
    disp {
      x: -0.0975
      y: -0.3204
      z: -0.066
    }
    disp {
      x: -0.073
      y: -0.0965
      z: 0.1844
    }
    disp {
      x: -0.1184
      y: -0.0181
      z: 0.1886
    }
    disp {
      x: -0.3289
      y: 0.0786
      z: -0.0603
    }
    disp {
      x: -0.0472
      y: 0.1554
      z: 0.1662
    }
    disp {
      x: 0.1145
      y: -0.1222
      z: 0.1625
    }
  }
  vib_mode {
    disp {
      x: 0.1801
      y: 0.0249
      z: -0.0482
    }
    disp {
      x: -0.1123
      y: -0.144
      z: 0.0468
    }
    disp {
      x: -0.1422
      y: 0.2472
      z: 0.0031
    }
    disp {
      x: -0.1804
      y: -0.0239
      z: -0.0475
    }
    disp {
      x: 0.1127
      y: 0.143
      z: 0.049
    }
    disp {
      x: 0.1422
      y: -0.2472
      z: -0.003
    }
    disp {
      x: -0.0412
      y: 0.1485
      z: -0.0443
    }
    disp {
      x: 0.2678
      y: -0.0132
      z: -0.035
    }
    disp {
      x: -0.1083
      y: 0.1089
      z: 0.0464
    }
    disp {
      x: -0.1235
      y: -0.2385
      z: 0.0319
    }
    disp {
      x: -0.1109
      y: 0.2491
      z: 0.0227
    }
    disp {
      x: -0.1608
      y: 0.2214
      z: -0.0167
    }
    disp {
      x: -0.2683
      y: 0.0138
      z: -0.0328
    }
    disp {
      x: 0.041
      y: -0.1476
      z: -0.0475
    }
    disp {
      x: 0.1086
      y: -0.1098
      z: 0.0434
    }
    disp {
      x: 0.1237
      y: 0.2377
      z: 0.0359
    }
    disp {
      x: 0.1111
      y: -0.2495
      z: 0.0167
    }
    disp {
      x: 0.1606
      y: -0.2209
      z: -0.0224
    }
  }
  vib_mode {
    disp {
      x: -0.052
      y: -0.0509
      z: 0.0772
    }
    disp {
      x: 0.0693
      y: 0.021
      z: -0.0774
    }
    disp {
      x: -0.0308
      y: 0.0535
      z: 0.0007
    }
    disp {
      x: -0.0526
      y: -0.0494
      z: -0.0778
    }
    disp {
      x: 0.0698
      y: 0.0194
      z: 0.0773
    }
    disp {
      x: -0.0308
      y: 0.0535
      z: 0.0006
    }
    disp {
      x: -0.0133
      y: -0.0118
      z: -0.2538
    }
    disp {
      x: -0.172
      y: -0.3429
      z: 0.1183
    }
    disp {
      x: 0.0195
      y: 0.0007
      z: 0.2542
    }
    disp {
      x: 0.3813
      y: -0.0212
      z: -0.1225
    }
    disp {
      x: 0.0442
      y: 0.0877
      z: 0.0341
    }
    disp {
      x: -0.099
      y: 0.007
      z: -0.0323
    }
    disp {
      x: -0.1731
      y: -0.3403
      z: -0.124
    }
    disp {
      x: -0.0116
      y: -0.0171
      z: 0.2538
    }
    disp {
      x: 0.0175
      y: 0.0059
      z: -0.2545
    }
    disp {
      x: 0.3825
      y: -0.0238
      z: 0.1194
    }
    disp {
      x: 0.0439
      y: 0.0884
      z: -0.0326
    }
    disp {
      x: -0.0987
      y: 0.0063
      z: 0.0332
    }
  }
  vib_mode {
    disp {
      x: -0.0092
      y: -0.0127
      z: -0.0285
    }
    disp {
      x: -0.0158
      y: -0.0009
      z: -0.0285
    }
    disp {
      x: -0.0145
      y: -0.0092
      z: 0.0669
    }
    disp {
      x: -0.0089
      y: -0.0126
      z: 0.0284
    }
    disp {
      x: -0.0152
      y: -0.0017
      z: 0.0286
    }
    disp {
      x: -0.0154
      y: -0.0082
      z: -0.0675
    }
    disp {
      x: -0.0682
      y: -0.0222
      z: 0.2112
    }
    disp {
      x: 0.2108
      y: 0.1373
      z: -0.0379
    }
    disp {
      x: -0.0512
      y: -0.0517
      z: 0.2115
    }
    disp {
      x: 0.2241
      y: 0.1136
      z: -0.0384
    }
    disp {
      x: -0.0809
      y: 0.3212
      z: -0.1486
    }
    disp {
      x: 0.236
      y: -0.2287
      z: -0.1555
    }
    disp {
      x: 0.2094
      y: 0.1355
      z: 0.0391
    }
    disp {
      x: -0.0684
      y: -0.0174
      z: -0.209
    }
    disp {
      x: -0.052
      y: -0.0466
      z: -0.2104
    }
    disp {
      x: 0.2231
      y: 0.1118
      z: 0.039
    }
    disp {
      x: -0.0804
      y: 0.3201
      z: 0.1566
    }
    disp {
      x: 0.2391
      y: -0.2337
      z: 0.1501
    }
  }
  vib_mode {
    disp {
      x: -0.004
      y: -0.078
      z: -0.0155
    }
    disp {
      x: -0.0691
      y: 0.0361
      z: -0.0141
    }
    disp {
      x: 0.0619
      y: 0.0361
      z: -0.0298
    }
    disp {
      x: 0.004
      y: 0.0784
      z: -0.0143
    }
    disp {
      x: 0.0693
      y: -0.0358
      z: -0.0156
    }
    disp {
      x: -0.062
      y: -0.0353
      z: -0.0295
    }
    disp {
      x: -0.1351
      y: -0.0583
      z: 0.2799
    }
    disp {
      x: 0.179
      y: 0.1714
      z: -0.0445
    }