# proto-file: third_party/google_research/google_research/smu/dataset.proto
# proto-message: MultipleMolecules
molecules {
  mol_id: 618451001
  original_molecule_index: 3
  ini_geo {
    atompos {
      x: -0.599232
      y: 0.468652
      z: 4.1882
    }
    atompos {
      x: 1.255345
      y: -6.557917
      z: 6.569822
    }
    atompos {
      x: 3.022428
      y: -4.726961
      z: 1.829255
    }
    atompos {
      x: 1.562426
      y: -3.34387
      z: 3.365035
    }
    atompos {
      x: 0.635137
      y: -4.098816
      z: 5.68354
    }
    atompos {
      x: 0.954312
      y: -0.93447
      z: 2.497462
    }
    atompos {
      x: 3.815168
      y: -7.091386
      z: 2.321718
    }
    atompos {
      x: -0.961871
      y: 2.315859
      z: 3.333477
    }
    atompos {
      x: 0.36226
      y: 0.778756
      z: 5.994589
    }
    atompos {
      x: -2.420928
      y: -0.471109
      z: 4.474494
    }
    atompos {
      x: 0.506447
      y: -8.014329
      z: 5.306351
    }
    atompos {
      x: 3.297194
      y: -6.761062
      z: 6.830604
    }
    atompos {
      x: 0.358859
      y: -6.807549
      z: 8.416462
    }
    atompos {
      x: 3.727296
      y: -4.095603
      z: 0.019653
    }
    energy {
      val: -406.51179
    }
    gnorm {
      val: 0.052254
    }
  }
  opt_geo {
    atompos {
      x: -0.313382
      y: 0.35652
      z: 4.266687
    }
    atompos {
      x: 1.020933
      y: -6.548927
      z: 6.532749
    }
    atompos {
      x: 3.098166
      y: -4.521578
      z: 1.87957
    }
    atompos {
      x: 1.060933
      y: -3.666938
      z: 3.096341
    }
    atompos {
      x: -0.233446
      y: -4.739548
      z: 5.001116
    }
    atompos {
      x: 0.047209
      y: -1.464903
      z: 2.323809
    }
    atompos {
      x: 4.078021
      y: -6.849559
      z: 2.257301
    }
    atompos {
      x: -1.056283
      y: 2.035316
      z: 3.337331
    }
    atompos {
      x: 1.488333
      y: 0.812315
      z: 5.181658
    }
    atompos {
      x: -1.658765
      y: -0.312746
      z: 5.679998
    }
    atompos {
      x: 1.263894
      y: -8.338243
      z: 5.539461
    }
    atompos {
      x: 2.871175
      y: -5.845894
      z: 7.12975
    }
    atompos {
      x: -0.186802
      y: -6.821294
      z: 8.177102
    }
    atompos {
      x: 4.034854
      y: -3.434324
      z: 0.427788
    }
    energy {
      val: -406.522079
    }
    gnorm {
      val: 2.5e-05
    }
    enuc {
      val: 324.344177
    }
    brot {
      val: 1455.371
      val: 2040.472
      val: 4104.237
    }
  }
  prop {
    calc {
      which_database: STANDARD
    }
    vib_intens {
      val: 0.0
      val: 0.0
      val: 0.0
      val: 0.0
      val: 0.0
      val: 0.0
      val: 2.7
      val: 6.9
      val: 0.8
      val: 1.7
      val: 7.5
      val: 3.1
      val: 0.7
      val: 0.4
      val: 8.2
      val: 13.1
      val: 1.4
      val: 42.6
      val: 31.9
      val: 16.8
      val: 75.4
      val: 179.9
      val: 2.8
      val: 1.8
      val: 31.6
      val: 26.7
      val: 233.2
      val: 190.2
      val: 9.8
      val: 11.9
      val: 11.0
      val: 8.7
      val: 17.4
      val: 24.3
      val: 83.9
      val: 49.9
      val: 40.3
      val: 33.7
      val: 31.3
      val: 19.3
      val: 22.4
      val: 6.4
    }
    spe_std_pbe0d3_6311gd {
      val: -406.522079
    }
    spe_check_pbe0_6311gd_tmol {
      val: -406.516515
    }
    spe_check_pbe0_6311gd_mrcc {
      val: -406.516542
    }
    spe_check_pbe0_6311gd_orca {
      val: -406.51661
    }
    spe_stdcat_pbe0_6311gd_tmol {
      val: -406.208948
    }
    spe_stdcat_pbe0_6311gd_mrcc {
      val: -406.208975
    }
    spe_stdcat_pbe0_6311gd_orca {
      val: -406.209039
    }
    spe_std_pbe0_augpc1 {
      val: -406.367773
    }
    spe_std_hf_631gd {
      val: -404.636027
    }
    spe_std_b3lyp_631ppgdp {
      val: -406.884857
    }
    spe_std_b3lyp_augpcs1 {
      val: -406.820109
    }
    spe_std_pbe0_631ppgdp {
      val: -406.439788
    }
    spe_std_pbe0_augpcs1 {
      val: -406.372915
    }
    spe_std_hf_tzvp {
      val: -404.78774
    }
    spe_std_mp2_tzvp {
      val: -405.959501
    }
    spe_std_cc2_tzvp {
      val: -405.977857
    }
    spe_std_hf_3 {
      val: -404.796437
    }
    spe_std_mp2_3 {
      val: -406.179302
    }
    spe_std_hf_4 {
      val: -404.826244
    }
    spe_std_mp2_4 {
      val: -406.312304
    }
    spe_std_hf_34 {
      val: -404.833508
    }
    spe_std_mp2_34 {
      val: -406.405144
    }
    spe_std_hf_cvtz {
      val: -404.798103
    }
    spe_std_mp2full_cvtz {
      val: -406.547251
    }
    spe_std_hf_2sp {
      val: -404.496003
    }
    spe_std_mp2_2sp {
      val: -405.200766
    }
    spe_std_ccsd_2sp {
      val: -405.247266
    }
    spe_std_ccsd_t_2sp {
      val: -405.265911
    }
    spe_std_hf_2sd {
      val: -404.645594
    }
    spe_std_mp2_2sd {
      val: -405.693582
    }
    spe_std_ccsd_2sd {
      val: -405.744897
    }
    spe_std_ccsd_t_2sd {
      val: -405.775503
    }
    spe_std_hf_3psd {
      val: -404.744205
    }
    spe_std_mp2_3psd {
      val: -405.957647
    }
    spe_std_ccsd_3psd {
      val: -405.993585
    }
    spe_comp_b5 {
      val: -406.837971
    }
    spe_comp_b6 {
      val: -406.841388
    }
    vib_zpe {
      val: 69.83
    }
    orb_ehomo_pbe0_6311gd {
      val: -0.22633
    }
    orb_elumo_pbe0_6311gd {
      val: 0.04837
    }
    orb_ehomo_pbe0_augpc1 {
      val: -0.23288
    }
    orb_elumo_pbe0_augpc1 {
      val: -0.00479
    }
    orb_ehomo_pbe0_631ppgdp {
      val: -0.23186
    }
    orb_elumo_pbe0_631ppgdp {
      val: -0.00153
    }
    orb_ehomo_pbe0_augpcs1 {
      val: -0.23291
    }
    orb_elumo_pbe0_augpcs1 {
      val: -0.00465
    }
    orb_ehomo_b3lyp_631ppgdp {
      val: -0.22446
    }
    orb_elumo_b3lyp_631ppgdp {
      val: -0.01035
    }
    orb_ehomo_b3lyp_augpcs1 {
      val: -0.22613
    }
    orb_elumo_b3lyp_augpcs1 {
      val: -0.01239
    }
    orb_ehomo_hf_631gd {
      val: -0.32962
    }
    orb_elumo_hf_631gd {
      val: 0.21499
    }
    orb_ehomo_hf_tzvp {
      val: -0.33878
    }
    orb_elumo_hf_tzvp {
      val: 0.14251
    }
    orb_ehomo_hf_3 {
      val: -0.33538
    }
    orb_elumo_hf_3 {
      val: 0.13815
    }
    orb_ehomo_hf_4 {
      val: -0.33714
    }
    orb_elumo_hf_4 {
      val: 0.11064
    }
    orb_ehomo_hf_cvtz {
      val: -0.33544
    }
    orb_elumo_hf_cvtz {
      val: 0.13773
    }
    exc_ene_cc2_tzvp {
      val: 0.24087
      val: 0.26738
      val: 0.27212
      val: 0.29076
      val: 0.30522
    }
    exc_os_cc2_tzvp {
      val: 0.02671
      val: 0.1593
      val: 0.2112
      val: 0.02956
      val: 0.01099
    }
    nmr_pbe0_631ppgdp {
      val: 141.2736
      val: 140.4672
      val: 76.3904
      val: 47.04
      val: 248.3712
      val: 272.2432
      val: 394.24
      val: 28.0752
      val: 28.7792
      val: 27.5088
      val: 27.1984
      val: 27.9248
      val: 27.7792
      val: 24.8352
      prec: 0.0064
      prec: 0.0064
      prec: 0.0064
      prec: 0.0064
      prec: 0.0128
      prec: 0.0128
      prec: 0.0128
      prec: 0.0016
      prec: 0.0016
      prec: 0.0016
      prec: 0.0016
      prec: 0.0016
      prec: 0.0016
      prec: 0.0016
    }
    nmr_pbe0_augpcs1 {
      val: 128.3072
      val: 128.2688
      val: 56.032
      val: 23.9296
      val: 232.128
      val: 259.1872
      val: 388.1216
      val: 27.9488
      val: 28.512
      val: 27.304
      val: 27.0208
      val: 27.6288
      val: 27.632
      val: 24.6864
      prec: 0.0064
      prec: 0.0064
      prec: 0.0064
      prec: 0.0064
      prec: 0.0128
      prec: 0.0128
      prec: 0.0128
      prec: 0.0016
      prec: 0.0016
      prec: 0.0016
      prec: 0.0016
      prec: 0.0016
      prec: 0.0016
      prec: 0.0016
    }
    nmr_b3lyp_631ppgdp {
      val: 137.0048
      val: 136.4608
      val: 72.7488
      val: 42.784
      val: 243.0464
      val: 266.4576
      val: 391.0144
      val: 28.1696
      val: 28.8784
      val: 27.5568
      val: 27.2512
      val: 27.9888
      val: 27.8656
      val: 24.9408
      prec: 0.0064
      prec: 0.0064
      prec: 0.0064
      prec: 0.0064
      prec: 0.0128
      prec: 0.0128
      prec: 0.0128
      prec: 0.0016
      prec: 0.0016
      prec: 0.0016
      prec: 0.0016
      prec: 0.0016
      prec: 0.0016
      prec: 0.0016
    }
    nmr_b3lyp_augpcs1 {
      val: 122.08
      val: 122.2464
      val: 49.5744
      val: 16.5184
      val: 225.5104
      val: 252.2752
      val: 384.2048
      val: 28.0256
      val: 28.6112
      val: 27.3648
      val: 27.072
      val: 27.7072
      val: 27.712
      val: 24.7872
      prec: 0.0064
      prec: 0.0064
      prec: 0.0064
      prec: 0.0064
      prec: 0.0128
      prec: 0.0128
      prec: 0.0128
      prec: 0.0016
      prec: 0.0016
      prec: 0.0016
      prec: 0.0016
      prec: 0.0016
      prec: 0.0016
      prec: 0.0016
    }
    chg_mul_pbe0_augpc1 {
      val: -0.0902
      val: 0.092
      val: 0.2697
      val: 1.5354
      val: -1.4745
      val: -1.5808
      val: -0.8401
      val: 0.2063
      val: 0.3217
      val: 0.3209
      val: 0.3745
      val: 0.37
      val: 0.1165
      val: 0.3787
      prec: 0.0001
      prec: 0.0001
      prec: 0.0001
      prec: 0.0001
      prec: 0.0001
      prec: 0.0001
      prec: 0.0001
      prec: 0.0001
      prec: 0.0001
      prec: 0.0001
      prec: 0.0001
      prec: 0.0001
      prec: 0.0001
      prec: 0.0001
    }
    chg_mul_hf_631gd {
      val: -0.1811
      val: -0.1761
      val: 0.1187
      val: 0.7116
      val: -0.6753
      val: -0.6597
      val: -0.4344
      val: 0.1876
      val: 0.1585
      val: 0.1895
      val: 0.1938
      val: 0.1716
      val: 0.1831
      val: 0.2123
      prec: 0.0001
      prec: 0.0001
      prec: 0.0001
      prec: 0.0001
      prec: 0.0001
      prec: 0.0001
      prec: 0.0001
      prec: 0.0001
      prec: 0.0001
      prec: 0.0001
      prec: 0.0001
      prec: 0.0001
      prec: 0.0001
      prec: 0.0001
    }
    chg_loe_pbe0_augpc1 {
      val: 0.1837
      val: 0.1839
      val: 0.2092
      val: 0.0009
      val: -0.4007
      val: -0.4234
      val: -0.2322
      val: 0.0667
      val: 0.0681
      val: 0.0586
      val: 0.0578
      val: 0.0669
      val: 0.0681
      val: 0.0924
      prec: 0.0001
      prec: 0.0001
      prec: 0.0001
      prec: 0.0001
      prec: 0.0001
      prec: 0.0001
      prec: 0.0001
      prec: 0.0001
      prec: 0.0001
      prec: 0.0001
      prec: 0.0001
      prec: 0.0001
      prec: 0.0001
      prec: 0.0001
    }
    chg_loe_hf_631gd {
      val: -0.1701
      val: -0.1684
      val: -0.0667
      val: 0.1544
      val: -0.2355
      val: -0.2341
      val: -0.1865
      val: 0.133
      val: 0.1146
      val: 0.1285
      val: 0.1306
      val: 0.1225
      val: 0.1297
      val: 0.148
      prec: 0.0001
      prec: 0.0001
      prec: 0.0001
      prec: 0.0001
      prec: 0.0001
      prec: 0.0001
      prec: 0.0001
      prec: 0.0001
      prec: 0.0001
      prec: 0.0001
      prec: 0.0001
      prec: 0.0001
      prec: 0.0001
      prec: 0.0001
    }
    chg_nat_pbe0_augpc1 {
      val: -0.238
      val: -0.2364
      val: 0.0951
      val: 0.5842
      val: -0.6025
      val: -0.5973
      val: -0.3868
      val: 0.2039
      val: 0.185
      val: 0.1969
      val: 0.2009
      val: 0.1938
      val: 0.2028
      val: 0.1984
      prec: 0.0001
      prec: 0.0001
      prec: 0.0001
      prec: 0.0001
      prec: 0.0001
      prec: 0.0001
      prec: 0.0001
      prec: 0.0001
      prec: 0.0001
      prec: 0.0001
      prec: 0.0001
      prec: 0.0001
      prec: 0.0001
      prec: 0.0001
    }
    chg_nat_hf_631gd {
      val: -0.2314
      val: -0.2258
      val: 0.0989
      val: 0.6519
      val: -0.6423
      val: -0.6339
      val: -0.4123
      val: 0.2077
      val: 0.1828
      val: 0.2018
      val: 0.2046
      val: 0.1919
      val: 0.2034
      val: 0.2028
      prec: 0.0001
      prec: 0.0001
      prec: 0.0001
      prec: 0.0001
      prec: 0.0001
      prec: 0.0001
      prec: 0.0001
      prec: 0.0001
      prec: 0.0001
      prec: 0.0001
      prec: 0.0001
      prec: 0.0001
      prec: 0.0001
      prec: 0.0001
    }
    partial_charges_paboon_pbe0_aug_pc_1 {
      val: 0.2749
      val: 0.0687
      val: 0.236
      val: 0.3945
      val: -0.7551
      val: -0.4006
      val: -0.3655
      val: 0.0428
      val: 0.1053
      val: 0.1164
      val: 0.1085
      val: 0.0964
      val: 0.0323
      val: 0.0453
      prec: 0.0001
      prec: 0.0001
      prec: 0.0001
      prec: 0.0001
      prec: 0.0001
      prec: 0.0001
      prec: 0.0001
      prec: 0.0001
      prec: 0.0001
      prec: 0.0001
      prec: 0.0001
      prec: 0.0001
      prec: 0.0001
      prec: 0.0001
    }
    partial_charges_paboon_hf_6_31gd {
      val: 0.0232
      val: 0.0311
      val: 0.0596
      val: 0.4157
      val: -0.3656
      val: -0.3543
      val: -0.2786
      val: 0.0755
      val: 0.0504
      val: 0.0675
      val: 0.0706
      val: 0.0602
      val: 0.0705
      val: 0.0743
      prec: 0.0001
      prec: 0.0001
      prec: 0.0001
      prec: 0.0001
      prec: 0.0001
      prec: 0.0001
      prec: 0.0001
      prec: 0.0001
      prec: 0.0001
      prec: 0.0001
      prec: 0.0001
      prec: 0.0001
      prec: 0.0001
      prec: 0.0001
    }
    chg_esp_pbe0_augpc1 {
      val: -0.1006
      val: -0.2881
      val: -0.2132
      val: 0.3023
      val: -0.1319
      val: -0.3123
      val: -0.1241
      val: 0.1223
      val: 0.0739
      val: 0.0788
      val: 0.1501
      val: 0.1293
      val: 0.1363
      val: 0.1773
      prec: 0.0001
      prec: 0.0001
      prec: 0.0001
      prec: 0.0001
      prec: 0.0001
      prec: 0.0001
      prec: 0.0001
      prec: 0.0001
      prec: 0.0001
      prec: 0.0001
      prec: 0.0001
      prec: 0.0001
      prec: 0.0001
      prec: 0.0001
    }
    chg_esp_hf_631gd {
      val: 0.0269
      val: -0.2017
      val: -0.204
      val: 0.4098
      val: -0.234
      val: -0.4122
      val: -0.1566
      val: 0.0957
      val: 0.0526
      val: 0.0623
      val: 0.1345
      val: 0.1182
      val: 0.1226
      val: 0.1859
      prec: 0.0001
      prec: 0.0001
      prec: 0.0001
      prec: 0.0001
      prec: 0.0001
      prec: 0.0001
      prec: 0.0001
      prec: 0.0001
      prec: 0.0001
      prec: 0.0001
      prec: 0.0001
      prec: 0.0001
      prec: 0.0001
      prec: 0.0001
    }
    elec_pol_pbe0_augpc1 {
      xx: 58.80935
      yy: 65.98525
      zz: 59.87708
      xy: -7.76183
      xz: -8.13571
      yz: -1.61908
    }
    elec_dip_pbe0_augpc1 {
      x: 0.00439
      y: 0.37665
      z: 0.72709
    }
    elec_dip_hf_631gd {
      x: 0.09513
      y: 0.46355
      z: 0.80642
    }
    elec_qua_pbe0_augpc1 {
      xx: -32.30635
      yy: -31.24161
      zz: -24.19366
      xy: 0.96159
      xz: 0.03026
      yz: -2.51221
    }
    elec_qua_hf_631gd {
      xx: -31.78863
      yy: -31.32069
      zz: -23.03958
      xy: 0.85285
      xz: 0.49717
      yz: -2.37817
    }
    elec_oct_pbe0_augpc1 {
      xxx: -119.04308
      yyy: 353.349
      zzz: -301.22711
      xxy: 132.03636
      xxz: -123.29265
      xyy: -52.68846
      yyz: -89.32013
      xzz: -32.35748
      yzz: 83.80084
      xyz: -1.25121
    }
    elec_oct_hf_631gd {
      xxx: -115.58582
      yyy: 351.24216
      zzz: -291.96384
      xxy: 131.3532
      xxz: -121.65704
      xyy: -53.00702
      yyz: -86.89651
      xzz: -28.30479
      yzz: 80.41479
      xyz: -3.30141
    }
    compute_cluster_info: "Stage 1  Host IP:   XXX.YYY.128.000\nStage 1  Cluster:   google-docker\nStage 1  Cores:        16\nStage 1  CPU type:      2\nStage 2  Host IP:   XXX.YYY.004.126\nStage 2  Cluster:   google-docker\nStage 2  Cores:         8\nStage 2  CPU type:      2\n"
    symmetry_used_in_calculation: false
    number_imaginary_frequencies: 0
    number_of_optimization_runs: 1
    wf_diag_d1_2sp {
      val: 0.0486
    }
    wf_diag_t1_2sp {
      val: 0.0121
    }
    wf_diag_t1_2sd {
      val: 0.0124
    }
    wf_diag_t1_3psd {
      val: 0.013
    }
    calculation_statistics {
      computing_location: "Geo"
      timings: "153"
    }
    calculation_statistics {
      computing_location: "Force"
      timings: "45"
    }
    calculation_statistics {
      computing_location: "MP2"
      timings: "108"
    }
    calculation_statistics {
      computing_location: "CC"
      timings: "178"
    }
    calculation_statistics {
      computing_location: "Polar"
      timings: "102"
    }
    calculation_statistics {
      computing_location: "Elec"
      timings: "4"
    }
    calculation_statistics {
      computing_location: "NMRs"
      timings: "53"
    }
    calculation_statistics {
      computing_location: "NMRl"
      timings: "197"
    }
    calculation_statistics {
      computing_location: "Exci"
      timings: "136"
    }
    calculation_statistics {
      computing_location: "IP"
      timings: "51"
    }
    spe_comp_eccsd {
      val: -406.427785
    }
    at2_gen_t1_exc {
      val: 0.0036
    }
    at2_gen_bsr_left {
      val: " molecule +  3 CH4 +  2 H2O"
    }
    at2_gen_bsr_right {
      val: " 4 H3C-OH +  1 H2C=CH2 +  1 H3C-F"
    }
    at2_std_b5_ereac {
      val: 30.94
    }
    at2_um_b5_ereac {
      val: 30.78
    }
    at2_um_b5_ereac_unc {
      val: 0.73
    }
    at2_std_b6_ereac {
      val: 30.69
    }
    at2_um_b6_ereac {
      val: 30.46
    }
    at2_um_b6_ereac_unc {
      val: 1.58
    }
    at2_std_eccsd_ereac {
      val: 29.86
    }
    at2_um_eccsd_ereac {
      val: 30.63
    }
    at2_um_eccsd_ereac_unc {
      val: 3.35
    }
    at2_std_b5_eae {
      val: 1341.53
    }
    at2_um_b5_eae {
      val: 1342.12
    }
    at2_um_b5_eae_unc {
      val: 1.26
    }
    at2_std_b6_eae {
      val: 1341.28
    }
    at2_um_b6_eae {
      val: 1341.8
    }
    at2_um_b6_eae_unc {
      val: 1.89
    }
    at2_std_eccsd_eae {
      val: 1340.46
    }
    at2_um_eccsd_eae {
      val: 1341.97
    }
    at2_um_eccsd_eae_unc {
      val: 3.51
    }
    at2_std_b5_ea0 {
      val: 1273.17
    }
    at2_um_b5_ea0 {
      val: 1273.76
    }
    at2_um_b5_ea0_unc {
      val: 1.53
    }
    at2_std_b6_ea0 {
      val: 1272.92
    }
    at2_um_b6_ea0 {
      val: 1273.44
    }
    at2_um_b6_ea0_unc {
      val: 2.07
    }
    at2_std_eccsd_ea0 {
      val: 1272.09
    }
    at2_um_eccsd_ea0 {
      val: 1273.61
    }
    at2_um_eccsd_ea0_unc {
      val: 3.61
    }
    at2_std_b5_hf0 {
      val: -95.16
    }
    at2_um_b5_hf0 {
      val: -95.75
    }
    at2_um_b5_hf0_unc {
      val: 1.53
    }
    at2_std_b6_hf0 {
      val: -94.91
    }
    at2_um_b6_hf0 {
      val: -95.43
    }
    at2_um_b6_hf0_unc {
      val: 2.07
    }
    at2_std_eccsd_hf0 {
      val: -94.09
    }
    at2_um_eccsd_hf0 {
      val: -95.6
    }
    at2_um_eccsd_hf0_unc {
      val: 3.61
    }
    at2_std_b5_hf298 {
      val: -100.64
    }
    at2_um_b5_hf298 {
      val: -101.24
    }
    at2_um_b5_hf298_unc {
      val: 1.55
    }
    at2_std_b6_hf298 {
      val: -100.4
    }
    at2_um_b6_hf298 {
      val: -100.92
    }
    at2_um_b6_hf298_unc {
      val: 2.09
    }
    at2_std_eccsd_hf298 {
      val: -99.57
    }
    at2_um_eccsd_hf298 {
      val: -101.08
    }
    at2_um_eccsd_hf298_unc {
      val: 3.62
    }
    at2_std_zpe {
      val: 68.36
    }
    at2_um_zpe {
      val: 68.36
    }
    at2_um_zpe_unc {
      val: 0.85
    }
    vib_freq {
      val: 0.0
      val: 0.0
      val: 0.0
      val: 0.0
      val: 0.0
      val: 0.0
      val: 64.4
      val: 91.7
      val: 157.3
      val: 203.0
      val: 241.8
      val: 257.6
      val: 346.4
      val: 371.0
      val: 476.5
      val: 631.7
      val: 704.1
      val: 735.4
      val: 886.4
      val: 1047.2
      val: 1128.0
      val: 1166.7
      val: 1186.4
      val: 1190.6
      val: 1221.9
      val: 1236.1
      val: 1292.4
      val: 1363.6
      val: 1486.4
      val: 1501.8
      val: 1504.3
      val: 1513.8
      val: 1522.8
      val: 1525.7
      val: 1798.4
      val: 3040.6
      val: 3058.4
      val: 3129.0
      val: 3144.1
      val: 3174.7
      val: 3176.9
      val: 3269.7
    }
    vib_mode {
      disp {
        x: -0.0491
        y: -0.0199
        z: 0.1436
      }
      disp {
        x: -0.2317
        y: -0.0931
        z: 0.0278
      }
      disp {
        x: 0.1393
        y: 0.0557
        z: 0.2583
      }
      disp {
        x: 0.0427
        y: 0.0173
        z: 0.1236
      }
      disp {
        x: -0.1092
        y: -0.0435
        z: -0.0138
      }
      disp {
        x: 0.1049
        y: 0.0425
        z: 0.1137
      }
      disp {
        x: 0.1084
        y: 0.0432
        z: 0.2614
      }
      disp {
        x: 0.0254
        y: 0.0103
        z: 0.1384
      }
      disp {
        x: -0.1217
        y: -0.0499
        z: 0.3016
      }
      disp {
        x: -0.1618
        y: -0.0648
        z: 0.015
      }
      disp {
        x: -0.1533
        y: -0.0613
        z: -0.0103
      }
      disp {
        x: -0.279
        y: -0.1129
        z: 0.1977
      }
      disp {
        x: -0.3626
        y: -0.1456
        z: -0.077
      }
      disp {
        x: 0.2551
        y: 0.1021
        z: 0.3677
      }
    }
    vib_mode {
      disp {
        x: 0.0106
        y: -0.0459
        z: 0.2991
      }
      disp {
        x: 0.172
        y: -0.0558
        z: 0.174
      }
      disp {
        x: -0.1295
        y: -0.0236
        z: 0.0534
      }
      disp {
        x: -0.0541
        y: -0.0357
        z: 0.1882
      }
      disp {
        x: 0.07
        y: -0.0499
        z: 0.2644
      }
      disp {
        x: -0.1087
        y: -0.0337
        z: 0.2656
      }
      disp {
        x: -0.0997
        y: -0.0234
        z: -0.0226
      }
      disp {
        x: -0.0527
        y: -0.0423
        z: 0.3562
      }
      disp {
        x: 0.0678
        y: -0.0468
        z: 0.187
      }
      disp {
        x: 0.1023
        y: -0.0574
        z: 0.381
      }
      disp {
        x: 0.1131
        y: -0.0494
        z: 0.1481
      }
      disp {
        x: 0.2083
        y: -0.0547
        z: 0.0601
      }
      disp {
        x: 0.2775
        y: -0.0683
        z: 0.2494
      }
      disp {
        x: -0.2247
        y: -0.0129
      }
    }
    vib_mode {
      disp {
        x: 0.3567
        y: 0.0202
        z: -0.0435
      }
      disp {
        x: 0.1026
        y: 0.0143
        z: 0.0882
      }
      disp {
        x: 0.1454
        y: -0.1634
        z: 0.0299
      }
      disp {
        x: 0.1888
        y: -0.0581
        z: 0.0285
      }
      disp {
        x: 0.1617
        y: 0.0322
        z: 0.0609
      }
      disp {
        x: 0.2695
        y: -0.034
        z: -0.0088
      }
      disp {
        x: 0.0567
        y: -0.1943
        z: 0.07
      }
      disp {
        x: 0.4155
        y: 0.0304
        z: -0.0722
      }
      disp {
        x: 0.382
        y: -0.0319
        z: -0.0673
      }
      disp {
        x: 0.3416
        y: 0.1024
        z: -0.019
      }
      disp {
        x: 0.0241
        y: -0.0157
        z: 0.1231
      }
      disp {
        x: 0.135
        y: -0.0463
        z: 0.059
      }
      disp {
        x: 0.1049
        y: 0.0958
        z: 0.1034
      }
      disp {
        x: 0.1767
        y: -0.2303
      }
    }
    vib_mode {
      disp {
        x: 0.145
        y: 0.0488
        z: 0.2316
      }
      disp {
        x: 0.019
        y: -0.1246
        z: -0.2227
      }
      disp {
        x: 0.0756
        y: 0.1513
        z: -0.0772
      }
      disp {
        x: 0.0839
        y: 0.104
        z: -0.0302
      }
      disp {
        x: 0.0566
        y: -0.0016
        z: -0.1081
      }
      disp {
        x: 0.1243
        y: 0.1724
        z: 0.1118
      }
      disp {
        x: 0.0351
        y: 0.1098
        z: -0.2277
      }
      disp {
        x: 0.1775
        y: 0.1231
        z: 0.3399
      }
      disp {
        x: 0.1481
        y: -0.0423
        z: 0.2708
      }
      disp {
        x: 0.1269
        y: -0.0232
        z: 0.1803
      }
      disp {
        x: -0.0059
        y: -0.0624
        z: -0.3409
      }
      disp {
        x: 0.0278
        y: -0.1953
        z: -0.1667
      }
      disp {
        x: 0.0064
        y: -0.2143
        z: -0.2468
      }
      disp {
        x: 0.1009
        y: 0.2326
      }
    }
    vib_mode {
      disp {
        x: 0.1341
        y: 0.2603
        z: -0.0043
      }
      disp {
        x: -0.1369
        y: 0.238
        z: 0.0872
      }
      disp {
        x: -0.1079
        y: 0.0747
        z: 0.029
      }
      disp {
        x: -0.0554
        y: 0.1823
        z: 0.0414
      }
      disp {
        x: -0.0778
        y: 0.2684
        z: 0.0747
      }
      disp {
        x: 0.0304
        y: 0.2141
        z: 0.0197
      }
      disp {
        x: -0.2042
        y: 0.0381
        z: 0.0531
      }
      disp {
        x: 0.1952
        y: 0.2779
        z: -0.0213
      }
      disp {
        x: 0.1655
        y: 0.1965
        z: -0.0344
      }
      disp {
        x: 0.123
        y: 0.3409
        z: 0.0232
      }
      disp {
        x: -0.2271
        y: 0.2118
        z: 0.1122
      }
      disp {
        x: -0.0988
        y: 0.167
        z: 0.0526
      }
      disp {
        x: -0.1278
        y: 0.3162
        z: 0.1068
      }
      disp {
        x: -0.0792
        y: 0.0113
      }
    }
    vib_mode {
      disp {
        x: 0.1007
        y: -0.0623
        z: 0.0536
      }
      disp {
        x: -0.2778
        y: -0.1859
        z: -0.1003
      }
      disp {
        x: -0.1326
        y: -0.1826
        z: -0.034
      }
      disp {
        x: -0.0985
        y: -0.1058
        z: -0.031
      }
      disp {
        x: -0.1706
        y: -0.0841
        z: -0.0677
      }
      disp {
        x: 0.0226
        y: -0.0346
        z: 0.0131
      }
      disp {
        x: -0.2569
        y: -0.2426
        z: -0.0813
      }
      disp {
        x: 0.196
        y: -0.0014
        z: 0.0874
      }
      disp {
        x: 0.1166
        y: -0.1779
        z: 0.0799
      }
      disp {
        x: 0.0539
        y: -0.0262
        z: 0.0261
      }
      disp {
        x: -0.3624
        y: -0.1748
        z: -0.141
      }
      disp {
        x: -0.2463
        y: -0.2965
        z: -0.0676
      }
      disp {
        x: -0.306
        y: -0.1625
        z: -0.1171
      }
      disp {
        x: -0.0636
        y: -0.1966
      }
    }
    vib_mode {
      disp {
        x: 0.1249
        y: 0.0855
        z: -0.1041
      }
      disp {
        x: -0.0663
        y: -0.1892
        z: -0.0977
      }
      disp {
        x: -0.0537
        y: 0.0132
        z: 0.0029
      }
      disp {
        x: -0.0416
        y: -0.0094
        z: 0.0413
      }
      disp {
        x: 0.027
        y: 0.0639
        z: 0.1273
      }
      disp {
        x: -0.1132
        y: -0.0594
        z: -0.0124
      }
      disp {
        x: 0.0905
        y: 0.0812
        z: 0.0521
      }
      disp {
        x: -0.0151
        y: 0.0089
        z: -0.1307
      }
      disp {
        x: 0.2441
        y: 0.1684
        z: -0.3801
      }
      disp {
        x: 0.3188
        y: 0.1794
        z: 0.1259
      }
      disp {
        x: -0.2859
        y: -0.1231
        z: -0.272
      }
      disp {
        x: 0.0276
        y: -0.4221
        z: -0.1188
      }
      disp {
        x: -0.0161
        y: -0.2231
        z: -0.0671
      }
      disp {
        x: -0.173
        y: 0.0002
        z: -0.084
      }
    }
    vib_mode {
      disp {
        x: 0.207
        y: 0.0063
        z: 0.0314
      }
      disp {
        x: 0.0062
        y: 0.0898
        z: 0.066
      }
      disp {
        x: -0.0106
        y: 0.0379
        z: 0.0154
      }
      disp {
        x: -0.0722
        y: -0.0425
        z: -0.0371
      }
      disp {
        x: -0.1108
        y: -0.1457
        z: -0.1179
      }
      disp {
        x: -0.0905
        y: -0.0319
        z: 0.0107
      }
      disp {
        x: 0.0354
        y: 0.0611
        z: 0.014
      }
      disp {
        x: 0.0052
        y: -0.0265
        z: 0.1337
      }
      disp {
        x: 0.3637
        y: 0.0575
        z: -0.3016
      }
      disp {
        x: 0.4714
        y: 0.0048
        z: 0.2842
      }
      disp {
        x: 0.3073
        y: 0.0678
        z: 0.1799
      }
      disp {
        x: -0.1246
        y: 0.3582
        z: 0.1604
      }
      disp {
        x: -0.0746
        y: 0.0217
        z: -0.0042
      }
      disp {
        x: 0.028
        y: 0.0944
        z: 0.082
      }
    }
    vib_mode {
      disp {
        x: -0.0604
        y: 0.0293
        z: -0.0141
      }
      disp {
        x: -0.0049
        y: -0.0129
        z: -0.005
      }
      disp {
        x: 0.0359
        y: 0.0016
        z: 0.0221
      }
      disp {
        x: 0.0427
        y: 0.022
        z: 0.0193
      }
      disp {
        x: 0.0156
        y: -0.0068
        z: -0.0146
      }
      disp {
        x: 0.0406
        y: 0.0203
        z: 0.0151
      }
      disp {
        x: -0.0426
        y: -0.0387
        z: -0.0125
      }
      disp {
        x: -0.6086
        y: -0.1909
        z: 0.0276
      }
      disp {
        x: -0.0109
        y: 0.4908
        z: -0.3405
      }
      disp {
        x: 0.3285
        y: -0.2113
        z: 0.241
      }
      disp {
        x: -0.0048
        y: -0.0127
        z: -0.0046
      }
      disp {
        x: -0.0066
        y: -0.0219
        z: 0.0113
      }
      disp {
        x: -0.0202
        y: -0.0091
        z: -0.0153
      }
      disp {
        x: 0.0751
        y: -0.0044
        z: 0.0432
      }
    }
    vib_mode {
      disp {